c WARNING: for repeatability, setting FPU to use double precision
d VARIABLES            73566        
d CONSTRAINTS          260404       
c ============================[ Problem Statistics ]=============================
c |                                                                             |
c |  Number of variables:         73566                                         |
c |  Number of clauses:          260404                                         |
c |  Parse time:                   0.04 s                                       |
c |                                                                             |
c ============================[ Search Statistics ]==============================
c | Conflicts |          ORIGINAL         |          LEARNT          | Progress |
c |           |    Vars  Clauses Literals |    Limit  Clauses Lit/Cl |          |
c ===============================================================================
c |       100 |   53485   208382   523867 |    76406       99     18 | 27.297 % |
c |       250 |   53485   208382   523867 |    84047      249     14 | 27.297 % |
c |       475 |   53485   208380   523862 |    92452      474     14 | 27.297 % |
c |       812 |   53485   208380   523862 |   101697      811     15 | 27.297 % |
c |      1318 |   53485   208380   523862 |   111867     1317     22 | 27.297 % |
c |      2077 |   53485   208380   523862 |   123053     2076     23 | 27.297 % |
c |      3216 |   53485   208380   523862 |   135359     3215     29 | 27.297 % |
c |      4924 |   53485   208380   523862 |   148895     4923     36 | 27.297 % |
c |      7486 |   53485   208380   523862 |   163784     7485     42 | 27.297 % |
c |     11330 |   53485   208380   523862 |   180163    11329     51 | 27.297 % |
c |     17096 |   53485   208380   523862 |   198179    17095     54 | 27.297 % |
c |     25745 |   53485   208380   523862 |   217997    25744     56 | 27.297 % |
c |     38719 |   53485   208380   523862 |   239797    38718     55 | 27.297 % |
c |     58180 |   53485   208380   523862 |   263776    58179     56 | 27.297 % |
c ===============================================================================
c restarts              : 236
c conflicts             : 75301          (3498 /sec)
c decisions             : 207595         (0.00 % random) (9644 /sec)
c propagations          : 116179993      (5397358 /sec)
c conflict literals     : 3968500        (47.60 % deleted)
d RESTARTS             236
d FAILURES             75301        
d NODES                207595       
d BACKTRACKS           207595       
d PROPAGATIONS         116179993    
d NOGOODSIZE           52.70 
d MEMORY               51.00 
d TIME                 21.5253 

s UNSATISFIABLE
